&CONTROL
  calculation = 'bands',
  prefix = 'hfbri2_tise2_old',
  outdir = './old_scf_save',
/
&SYSTEM
  ibrav = 0,
  nat = 5,
  ntyp = 4,
  ecutwfc = 80,
  ecutrho = 640,
/
&ELECTRONS
  conv_thr = 1.0d-10,
/
ATOMIC_SPECIES
Hf 178.49 Hf.pbe-spn-kjpaw_psl.1.0.0.UPF
Br 79.904 Br.pbe-n-kjpaw_psl.1.0.0.UPF
Ti 47.867 Ti.pbe-spn-kjpaw_psl.1.0.0.UPF
Se 78.971 Se.pbe-n-kjpaw_psl.1.0.0.UPF
CELL_PARAMETERS angstrom
  3.500000  0.000000  0.000000
 -1.750000  3.031089  0.000000
  0.000000  0.000000 25.000000
ATOMIC_POSITIONS crystal
Hf 0.000000 0.000000 0.500000
Br 0.333333 0.666667 0.570000
Br 0.666667 0.333333 0.430000
Ti 0.333333 0.666667 0.650000
Se 0.666667 0.333333 0.720000
K_POINTS crystal_b
3
0.000000 0.000000 0.000000 20
0.500000 0.000000 0.000000 20
0.333333 0.333333 0.000000 20
