&INPUT
  fildyn = 'test.dyn'
  flfrc = 'test.fc'
  zasr = 'crystal'
  la2F = .true.
/
