&PROJWFC
  prefix        = 'hfcl2'
  outdir        = './out_scf/'
  filpdos       = 'hfcl2_fatband'
  ngauss        = 0
  degauss       = 0.01
  Emin          = -5.0
  Emax          = 5.0
  DeltaE        = 0.01
  kresolveddos  = .true.
/
