&INPUT
  fildyn = '{{ qe.q2r.fildyn | default('dyn') }}'
  flfrc = '{{ qe.q2r.flfrc | default('fc') }}'
  zasr = '{{ qe.q2r.zasr | default('crystal') }}'
/
