&projwfc
  prefix  = 'test'
  outdir  = './out_scf/'
  filpdos = 'test.pdos'
  Emin    = -10.0
  Emax    =  10.0
  DeltaE  =  0.01
/
