&CONTROL
  calculation = 'scf'
  prefix      = 'hfcl2'
  outdir      = './out_scf/'
  pseudo_dir  = './pseudo/'
  verbosity   = 'high'
/
&SYSTEM
  ibrav = 0
  nat   = 3
  ntyp  = 2
  ecutwfc = 80
  ecutrho = 560
  occupations = 'smearing'
  smearing    = 'gaussian'
  degauss     = 5.0d-3
/
&ELECTRONS
  conv_thr = 1.0d-8
/
ATOMIC_SPECIES
Hf  178.490  Hf.pbe-spn-kjpaw_psl.1.0.0.UPF
Cl  35.450   Cl.pbe-n-kjpaw_psl.1.0.0.UPF
CELL_PARAMETERS (angstrom)
   3.500000   0.000000   0.000000
  -1.750000   3.031089   0.000000
   0.000000   0.000000  20.000000
ATOMIC_POSITIONS (crystal)
Hf  0.0000000000  0.0000000000  0.5000000000
Cl  0.6666666870  0.3333333430  0.5647340418
Cl  0.6666666870  0.3333333430  0.4352659582
K_POINTS automatic
16 16 1  0 0 0
